750
[151,157,162,168,169,173,177,178,179,186,188,190,192,196,199,200,207,209,210,218,219,221,223,224,225,226,227,230,231,232,234,236,241,242,244,248,252,254,256,262,269,272,274,275,281,283,284,286,288,291,292,294,297,298,301,302,308,309,317,320,321,324,327,328,329,331,332,333,338,341,344,345,346,347,348,349,352,353,355,367,369,371,372,373,374,379,382,383,391,397,398,401,402,403,406,410,411,412,414,418,419,421,423,426,427,430,432,434,436,437,440,441,442,445,447,451,455,456,457,458,461,462,463,466,467,472,474,479,488,490,493,496,501,502,509,512,513,521,530,543,544,545,550,557,563,571,572,577,581,596]
[1,2,3,2,1,2,1,1,1,2,1,1,1,1,1,1,1,2,1,1,1,3,1,2,1,1,2,2,1,1,1,1,1,1,1,2,2,1,1,1,2,1,1,1,1,1,2,1,1,1,1,1,1,2,1,1,1,1,1,2,1,1,1,1,1,1,1,1,2,1,1,2,1,3,1,1,1,2,1,1,1,2,1,1,1,3,1,1,3,2,1,1,1,2,2,1,2,2,1,1,1,1,1,1,1,1,1,1,1,2,1,1,2,3,1,1,2,2,3,1,1,1,1,1,1,1,1,1,2,2,2,1,3,2,2,1,1,1,1,2,1,1,1,1,1,1,1,1,2,1]
